c 7 reines
p cnf 49 441
1 2 3 4 5 6 7 0
8 9 10 11 12 13 14 0
15 16 17 18 19 20 21 0
22 23 24 25 26 27 28 0
29 30 31 32 33 34 35 0
36 37 38 39 40 41 42 0
43 44 45 46 47 48 49 0
-1 -2 0
-1 -3 0
-1 -4 0
-1 -5 0
-1 -6 0
-2 -3 0
-2 -4 0
-2 -5 0
-2 -6 0
-3 -4 0
-3 -5 0
-3 -6 0
-4 -5 0
-4 -6 0
-5 -6 0
-8 -9 0
-8 -10 0
-8 -11 0
-8 -12 0
-8 -13 0
-9 -10 0
-9 -11 0
-9 -12 0
-9 -13 0
-10 -11 0
-10 -12 0
-10 -13 0
-11 -12 0
-11 -13 0
-12 -13 0
-15 -16 0
-15 -17 0
-15 -18 0
-15 -19 0
-15 -20 0
-16 -17 0
-16 -18 0
-16 -19 0
-16 -20 0
-17 -18 0
-17 -19 0
-17 -20 0
-18 -19 0
-18 -20 0
-19 -20 0
-22 -23 0
-22 -24 0
-22 -25 0
-22 -26 0
-22 -27 0
-23 -24 0
-23 -25 0
-23 -26 0
-23 -27 0
-24 -25 0
-24 -26 0
-24 -27 0
-25 -26 0
-25 -27 0
-26 -27 0
-29 -30 0
-29 -31 0
-29 -32 0
-29 -33 0
-29 -34 0
-30 -31 0
-30 -32 0
-30 -33 0
-30 -34 0
-31 -32 0
-31 -33 0
-31 -34 0
-32 -33 0
-32 -34 0
-33 -34 0
-36 -37 0
-36 -38 0
-36 -39 0
-36 -40 0
-36 -41 0
-37 -38 0
-37 -39 0
-37 -40 0
-37 -41 0
-38 -39 0
-38 -40 0
-38 -41 0
-39 -40 0
-39 -41 0
-40 -41 0
-43 -44 0
-43 -45 0
-43 -46 0
-43 -47 0
-43 -48 0
-44 -45 0
-44 -46 0
-44 -47 0
-44 -48 0
-45 -46 0
-45 -47 0
-45 -48 0
-46 -47 0
-46 -48 0
-47 -48 0
-1 -8 0
-2 -9 0
-3 -10 0
-4 -11 0
-5 -12 0
-6 -13 0
-7 -14 0
-1 -15 0
-2 -16 0
-3 -17 0
-4 -18 0
-5 -19 0
-6 -20 0
-7 -21 0
-1 -22 0
-2 -23 0
-3 -24 0
-4 -25 0
-5 -26 0
-6 -27 0
-7 -28 0
-1 -29 0
-2 -30 0
-3 -31 0
-4 -32 0
-5 -33 0
-6 -34 0
-7 -35 0
-1 -36 0
-2 -37 0
-3 -38 0
-4 -39 0
-5 -40 0
-6 -41 0
-7 -42 0
-1 -43 0
-2 -44 0
-3 -45 0
-4 -46 0
-5 -47 0
-6 -48 0
-7 -49 0
-8 -15 0
-9 -16 0
-10 -17 0
-11 -18 0
-12 -19 0
-13 -20 0
-14 -21 0
-8 -22 0
-9 -23 0
-10 -24 0
-11 -25 0
-12 -26 0
-13 -27 0
-14 -28 0
-8 -29 0
-9 -30 0
-10 -31 0
-11 -32 0
-12 -33 0
-13 -34 0
-14 -35 0
-8 -36 0
-9 -37 0
-10 -38 0
-11 -39 0
-12 -40 0
-13 -41 0
-14 -42 0
-8 -43 0
-9 -44 0
-10 -45 0
-11 -46 0
-12 -47 0
-13 -48 0
-14 -49 0
-15 -22 0
-16 -23 0
-17 -24 0
-18 -25 0
-19 -26 0
-20 -27 0
-21 -28 0
-15 -29 0
-16 -30 0
-17 -31 0
-18 -32 0
-19 -33 0
-20 -34 0
-21 -35 0
-15 -36 0
-16 -37 0
-17 -38 0
-18 -39 0
-19 -40 0
-20 -41 0
-21 -42 0
-15 -43 0
-16 -44 0
-17 -45 0
-18 -46 0
-19 -47 0
-20 -48 0
-21 -49 0
-22 -29 0
-23 -30 0
-24 -31 0
-25 -32 0
-26 -33 0
-27 -34 0
-28 -35 0
-22 -36 0
-23 -37 0
-24 -38 0
-25 -39 0
-26 -40 0
-27 -41 0
-28 -42 0
-22 -43 0
-23 -44 0
-24 -45 0
-25 -46 0
-26 -47 0
-27 -48 0
-28 -49 0
-29 -36 0
-30 -37 0
-31 -38 0
-32 -39 0
-33 -40 0
-34 -41 0
-35 -42 0
-29 -43 0
-30 -44 0
-31 -45 0
-32 -46 0
-33 -47 0
-34 -48 0
-35 -49 0
-36 -43 0
-37 -44 0
-38 -45 0
-39 -46 0
-40 -47 0
-41 -48 0
-42 -49 0
-1 -9 0
-1 -17 0
-1 -25 0
-1 -33 0
-1 -41 0
-1 -49 0
-2 -10 0
-2 -18 0
-2 -26 0
-2 -34 0
-2 -42 0
-3 -11 0
-3 -19 0
-3 -27 0
-3 -35 0
-4 -12 0
-4 -20 0
-4 -28 0
-5 -13 0
-5 -21 0
-6 -14 0
-8 -2 0
-8 -16 0
-8 -24 0
-8 -32 0
-8 -40 0
-8 -48 0
-9 -3 0
-9 -17 0
-9 -25 0
-9 -33 0
-9 -41 0
-9 -49 0
-10 -4 0
-10 -18 0
-10 -26 0
-10 -34 0
-10 -42 0
-11 -5 0
-11 -19 0
-11 -27 0
-11 -35 0
-12 -6 0
-12 -20 0
-12 -28 0
-13 -7 0
-13 -21 0
-15 -9 0
-15 -23 0
-15 -3 0
-15 -31 0
-15 -39 0
-15 -47 0
-16 -10 0
-16 -24 0
-16 -4 0
-16 -32 0
-16 -40 0
-16 -48 0
-17 -11 0
-17 -25 0
-17 -5 0
-17 -33 0
-17 -41 0
-17 -49 0
-18 -12 0
-18 -26 0
-18 -6 0
-18 -34 0
-18 -42 0
-19 -13 0
-19 -27 0
-19 -7 0
-19 -35 0
-20 -14 0
-20 -28 0
-22 -16 0
-22 -30 0
-22 -10 0
-22 -38 0
-22 -4 0
-22 -46 0
-23 -17 0
-23 -31 0
-23 -11 0
-23 -39 0
-23 -5 0
-23 -47 0
-24 -18 0
-24 -32 0
-24 -12 0
-24 -40 0
-24 -6 0
-24 -48 0
-25 -19 0
-25 -33 0
-25 -13 0
-25 -41 0
-25 -7 0
-25 -49 0
-26 -20 0
-26 -34 0
-26 -14 0
-26 -42 0
-27 -21 0
-27 -35 0
-29 -23 0
-29 -37 0
-29 -17 0
-29 -45 0
-29 -11 0
-29 -5 0
-30 -24 0
-30 -38 0
-30 -18 0
-30 -46 0
-30 -12 0
-30 -6 0
-31 -25 0
-31 -39 0
-31 -19 0
-31 -47 0
-31 -13 0
-31 -7 0
-32 -26 0
-32 -40 0
-32 -20 0
-32 -48 0
-32 -14 0
-33 -27 0
-33 -41 0
-33 -21 0
-33 -49 0
-34 -28 0
-34 -42 0
-36 -30 0
-36 -44 0
-36 -24 0
-36 -18 0
-36 -12 0
-36 -6 0
-37 -31 0
-37 -45 0
-37 -25 0
-37 -19 0
-37 -13 0
-37 -7 0
-38 -32 0
-38 -46 0
-38 -26 0
-38 -20 0
-38 -14 0
-39 -33 0
-39 -47 0
-39 -27 0
-39 -21 0
-40 -34 0
-40 -48 0
-40 -28 0
-41 -35 0
-41 -49 0
-43 -37 0
-43 -31 0
-43 -25 0
-43 -19 0
-43 -13 0
-43 -7 0
-44 -38 0
-44 -32 0
-44 -26 0
-44 -20 0
-44 -14 0
-45 -39 0
-45 -33 0
-45 -27 0
-45 -21 0
-46 -40 0
-46 -34 0
-46 -28 0
-47 -41 0
-47 -35 0
-48 -42 0
